
Gurobi 10.0.1 (win64, Python) logging started Mon Jul 10 13:54:55 2023

Set parameter Username
Set parameter LogFile to value "C:/Users/asus/Desktop/ETP_problem/log/ETP_Problem09.log"
Academic license - for non-commercial use only - expires 2024-03-21
Set parameter Threads to value 1
Set parameter Presolve to value 1
Set parameter Method to value 0
Set parameter TimeLimit to value 600
Set parameter PreSparsify to value 1
Gurobi Optimizer version 10.0.1 build v10.0.1rc0 (win64)

CPU model: Intel(R) Core(TM) i5-8265U CPU @ 1.60GHz, instruction set [SSE2|AVX|AVX2]
Thread count: 4 physical cores, 8 logical processors, using up to 1 threads

Optimize a model with 761589 rows, 152019 columns and 2208924 nonzeros
Model fingerprint: 0xa2c80233
Variable types: 145161 continuous, 6858 integer (6858 binary)
Coefficient statistics:
  Matrix range     [1e+00, 2e+01]
  Objective range  [1e+00, 1e+00]
  Bounds range     [1e+00, 1e+00]
  RHS range        [1e+00, 2e+01]
Presolve removed 60290 rows and 140666 columns (presolve time = 5s) ...
Presolve removed 64674 rows and 140666 columns (presolve time = 10s) ...
Presolve removed 65114 rows and 140666 columns (presolve time = 15s) ...
Presolve removed 65114 rows and 140666 columns (presolve time = 20s) ...
Presolve removed 65114 rows and 140666 columns (presolve time = 25s) ...
Presolve removed 65114 rows and 140666 columns (presolve time = 30s) ...
Presolve removed 65162 rows and 140666 columns (presolve time = 35s) ...
Sparsify removed 656 nonzeros (0%)
Presolve removed 65172 rows and 140600 columns
Presolve time: 39.60s
Presolved: 696417 rows, 11419 columns, 2541774 nonzeros
Variable types: 0 continuous, 11419 integer (6886 binary)
Root relaxation presolved: 11419 rows, 707836 columns, 2553193 nonzeros


Root simplex log...

Iteration    Objective       Primal Inf.    Dual Inf.      Time
       0      handle free variables                         49s
    1679    1.2006875e+33   3.329812e+34   1.200688e+03     50s
    4971    6.2287469e+31   7.665322e+34   6.228747e+01     55s
    5601    3.1678046e+31   5.418375e+33   3.167805e+01     60s
    6338    1.0585079e+31   4.587210e+33   1.058508e+01     66s
    6790    3.0715731e+30   2.297751e+33   3.071573e+00     72s
    7108    3.0811574e+29   5.371462e+33   3.081157e-01     76s

Starting sifting (using dual simplex for sub-problems)...

    Iter     Pivots    Primal Obj      Dual Obj        Time
       0       7238    -infinity      2.3544408e+03     78s
       1       9311   1.0776541e-11   1.4090906e+03     80s
       2      11083   1.0877422e-11   6.7308223e+02     82s
       3      12553   1.0877422e-11   2.6115020e+02     84s
       4      13750   1.0877422e-11   9.4917304e+01     85s
       5      14945   1.0877422e-11   1.7125317e+01     86s

Sifting complete

   16113   -0.0000000e+00   0.000000e+00   0.000000e+00     87s
   16113   -0.0000000e+00   0.000000e+00   0.000000e+00     87s
   16113    0.0000000e+00   0.000000e+00   0.000000e+00     88s

Root relaxation: objective 0.000000e+00, 16113 iterations, 43.11 seconds (12.80 work units)

    Nodes    |    Current Node    |     Objective Bounds      |     Work
 Expl Unexpl |  Obj  Depth IntInf | Incumbent    BestBd   Gap | It/Node Time

     0     0    0.00000    0 1246          -    0.00000      -     -  176s
     0     0          -    0               -    0.00000      -     -  600s

Cutting planes:
  Gomory: 13
  Clique: 236
  MIR: 150
  StrongCG: 9
  Zero half: 197
  RLT: 1787
  Relax-and-lift: 152
  BQP: 4162

Explored 1 nodes (40376 simplex iterations) in 600.10 seconds (610.36 work units)
Thread count was 1 (of 8 available processors)

Solution count 0

Time limit reached
Best objective -, best bound 0.000000000000e+00, gap -
